Running: root_only
Set parameter Username
Set parameter LicenseID to value 2716274
Academic license - for non-commercial use only - expires 2026-09-30
-----------------------------------------------------------------
e_l=None, e_u=None, c_l=None, c_u=None
Inside the find_pareto_points function
Gurobi Optimizer version 12.0.3 build v12.0.3rc0 (linux64 - "Ubuntu 22.04.5 LTS")

CPU model: AMD EPYC 7742 64-Core Processor, instruction set [SSE2|AVX|AVX2]
Thread count: 128 physical cores, 256 logical processors, using up to 32 threads

Optimize a model with 967 rows, 297 columns and 2991 nonzeros
Model fingerprint: 0xaf51c107
Variable types: 279 continuous, 18 integer (0 binary)
Coefficient statistics:
  Matrix range     [1e+00, 4e+00]
  Objective range  [1e+00, 4e+00]
  Bounds range     [1e+00, 1e+00]
  RHS range        [1e+00, 1e+03]
Presolve removed 739 rows and 205 columns
Presolve time: 0.01s
Presolved: 228 rows, 92 columns, 677 nonzeros
Variable types: 77 continuous, 15 integer (15 binary)
Found heuristic solution: objective 12.0000000

Root relaxation: objective 1.600000e+01, 58 iterations, 0.00 seconds (0.00 work units)

    Nodes    |    Current Node    |     Objective Bounds      |     Work
 Expl Unexpl |  Obj  Depth IntInf | Incumbent    BestBd   Gap | It/Node Time

     0     0   16.00000    0    2   12.00000   16.00000  33.3%     -    0s
H    0     0                      13.6666667   16.00000  17.1%     -    0s
H    0     0                      14.0000000   16.00000  14.3%     -    0s
     0     0   14.66667    0    6   14.00000   14.66667  4.76%     -    0s
     0     0   14.00000    0    2   14.00000   14.00000  0.00%     -    0s

Cutting planes:
  Gomory: 1
  MIR: 4

Explored 1 nodes (77 simplex iterations) in 0.03 seconds (0.01 work units)
Thread count was 32 (of 256 available processors)

Solution count 3: 14 13.6667 12 

Optimal solution found (tolerance 1.00e-04)
Best objective 1.400000000000e+01, best bound 1.400000000000e+01, gap 0.0000%
lam[0,0] = 1.0
lam[0,1] = 0.0
lam[0,2] = -0.0
lam[1,0] = 0.0
lam[1,1] = 0.0
lam[1,2] = 1.0
lam[2,0] = 1.0
lam[2,1] = 0.0
lam[2,2] = 0.0
tau[0,0,1] = 0.0
tau[0,0,2] = -0.0
tau[0,0,L0] = 1.0
tau[0,0,L1] = -0.0
tau[0,0,L2] = 0.0
tau[0,1,1] = -0.0
tau[0,1,2] = -0.0
tau[0,1,L0] = -0.0
tau[0,1,L1] = 1.0
tau[0,1,L2] = 0.0
tau[0,2,1] = -0.0
tau[0,2,2] = -0.0
tau[0,2,L0] = 0.0
tau[0,2,L1] = -0.0
tau[0,2,L2] = 0.0
tau[1,0,2] = 0.0
tau[1,0,L0] = 0.0
tau[1,0,L1] = 0.0
tau[1,0,L2] = 1.0
tau[1,1,2] = 0.0
tau[1,1,L0] = 0.0
tau[1,1,L1] = 1.0
tau[1,1,L2] = 0.0
tau[1,2,2] = 0.0
tau[1,2,L0] = 0.0
tau[1,2,L1] = 0.0
tau[1,2,L2] = 0.0
tau[2,0,L0] = 0.0
tau[2,0,L1] = 0.0
tau[2,0,L2] = 1.0
tau[2,1,L0] = 1.0
tau[2,1,L1] = 0.0
tau[2,1,L2] = 0.0
tau[2,2,L0] = 0.0
tau[2,2,L1] = 0.0
tau[2,2,L2] = 0.0
m[0,0] = 1.0
m[0,1] = 1.0
m[0,2] = 1.0
m[0,3] = 0.0
m[1,0] = 0.0
m[1,1] = 0.0
m[1,2] = 0.0
m[1,3] = 0.0
m[2,0] = 0.0
m[2,1] = 0.0
m[2,2] = 0.0
m[2,3] = 0.0
m[L0,0] = 1.0
m[L0,1] = 0.0
m[L0,2] = 1.0
m[L0,3] = 0.0
m[L1,0] = 0.0
m[L1,1] = 1.0
m[L1,2] = 0.0
m[L1,3] = 0.0
m[L2,0] = 0.0
m[L2,1] = 0.0
m[L2,2] = 0.0
m[L2,3] = 1.0
u[0] = 1.0
u[1] = 0.0
u[2] = 0.0
o_u[0,0] = 1.0
o_u[0,1] = 0.0
o_u[0,2] = -0.0
o_u[1,0] = 0.0
o_u[1,1] = 0.0
o_u[1,2] = 0.0
o_u[2,0] = 0.0
o_u[2,1] = 0.0
o_u[2,2] = 0.0
Solving done
--------------------
c=0.75, e=11.0
Appending to pareto_points list
Searching solutions with greater explainability with e_u None
-----------------------------------------------------------------
e_l=12.0, e_u=None, c_l=None, c_u=0.5
Inside the find_pareto_points function
Gurobi Optimizer version 12.0.3 build v12.0.3rc0 (linux64 - "Ubuntu 22.04.5 LTS")

CPU model: AMD EPYC 7742 64-Core Processor, instruction set [SSE2|AVX|AVX2]
Thread count: 128 physical cores, 256 logical processors, using up to 32 threads

Optimize a model with 969 rows, 297 columns and 3007 nonzeros
Model fingerprint: 0x702174dc
Variable types: 279 continuous, 18 integer (0 binary)
Coefficient statistics:
  Matrix range     [1e+00, 4e+00]
  Objective range  [1e+00, 4e+00]
  Bounds range     [1e+00, 1e+00]
  RHS range        [1e+00, 1e+03]

MIP start from previous solve did not produce a new incumbent solution

Presolve removed 737 rows and 205 columns
Presolve time: 0.01s
Presolved: 232 rows, 92 columns, 702 nonzeros
Variable types: 77 continuous, 15 integer (15 binary)

Root relaxation: infeasible, 26 iterations, 0.00 seconds (0.00 work units)

    Nodes    |    Current Node    |     Objective Bounds      |     Work
 Expl Unexpl |  Obj  Depth IntInf | Incumbent    BestBd   Gap | It/Node Time

     0     0 infeasible    0               - infeasible      -     -    0s

Explored 1 nodes (26 simplex iterations) in 0.01 seconds (0.00 work units)
Thread count was 32 (of 256 available processors)

Solution count 0
No other solutions better than -1e+100

Model is infeasible
Best objective -, best bound -, gap -
Solving done
Returning because the model was infeasible
Searching for solutions with greater correctness with e_l None
-----------------------------------------------------------------
e_l=None, e_u=10.0, c_l=1.0, c_u=None
Inside the find_pareto_points function
Gurobi Optimizer version 12.0.3 build v12.0.3rc0 (linux64 - "Ubuntu 22.04.5 LTS")

CPU model: AMD EPYC 7742 64-Core Processor, instruction set [SSE2|AVX|AVX2]
Thread count: 128 physical cores, 256 logical processors, using up to 32 threads

Optimize a model with 969 rows, 297 columns and 3007 nonzeros
Model fingerprint: 0x71c81c4f
Variable types: 279 continuous, 18 integer (0 binary)
Coefficient statistics:
  Matrix range     [1e+00, 4e+00]
  Objective range  [1e+00, 4e+00]
  Bounds range     [1e+00, 1e+00]
  RHS range        [1e+00, 1e+03]

MIP start from previous solve did not produce a new incumbent solution

Presolve removed 771 rows and 216 columns
Presolve time: 0.01s
Presolved: 198 rows, 81 columns, 582 nonzeros
Variable types: 68 continuous, 13 integer (13 binary)
Found heuristic solution: objective 13.0000000
Found heuristic solution: objective 13.6666667

Root relaxation: objective 1.400000e+01, 65 iterations, 0.00 seconds (0.00 work units)

    Nodes    |    Current Node    |     Objective Bounds      |     Work
 Expl Unexpl |  Obj  Depth IntInf | Incumbent    BestBd   Gap | It/Node Time

     0     0   14.00000    0    7   13.66667   14.00000  2.44%     -    0s
     0     0   14.00000    0    4   13.66667   14.00000  2.44%     -    0s
     0     0   14.00000    0    6   13.66667   14.00000  2.44%     -    0s

Cutting planes:
  Gomory: 3
  Implied bound: 2
  MIR: 4
  RLT: 2

Explored 1 nodes (106 simplex iterations) in 0.03 seconds (0.01 work units)
Thread count was 32 (of 256 available processors)

Solution count 2: 13.6667 13 

Optimal solution found (tolerance 1.00e-04)
Best objective 1.366666666667e+01, best bound 1.366666666667e+01, gap 0.0000%
lam[0,0] = -0.0
lam[0,1] = 1.0
lam[0,2] = -0.0
lam[1,0] = 1.0
lam[1,1] = 0.0
lam[1,2] = 0.0
lam[2,0] = 0.3333333333333333
lam[2,1] = 0.3333333333333333
lam[2,2] = 0.3333333333333333
tau[0,0,1] = -0.0
tau[0,0,2] = -0.0
tau[0,0,L0] = 1.0
tau[0,0,L1] = 0.0
tau[0,0,L2] = 0.0
tau[0,1,1] = 1.0
tau[0,1,2] = -0.0
tau[0,1,L0] = -0.0
tau[0,1,L1] = -0.0
tau[0,1,L2] = -0.0
tau[0,2,1] = -0.0
tau[0,2,2] = -0.0
tau[0,2,L0] = 0.0
tau[0,2,L1] = -0.0
tau[0,2,L2] = 1.0
tau[1,0,2] = 0.0
tau[1,0,L0] = 1.0
tau[1,0,L1] = 0.0
tau[1,0,L2] = 0.0
tau[1,1,2] = 0.3333333333333333
tau[1,1,L0] = 0.0
tau[1,1,L1] = 0.6666666666666666
tau[1,1,L2] = 0.0
tau[1,2,2] = 0.0
tau[1,2,L0] = 0.0
tau[1,2,L1] = 0.0
tau[1,2,L2] = 0.0
tau[2,0,L0] = 0.0
tau[2,0,L1] = 0.0
tau[2,0,L2] = 1.0
tau[2,1,L0] = 0.3333333333333333
tau[2,1,L1] = 0.6666666666666666
tau[2,1,L2] = 0.0
tau[2,2,L0] = 0.3333333333333333
tau[2,2,L1] = 0.0
tau[2,2,L2] = 0.0
m[0,0] = 1.0
m[0,1] = 1.0
m[0,2] = 1.0
m[0,3] = 1.0
m[1,0] = 1.0
m[1,1] = 1.0
m[1,2] = 1.0
m[1,3] = 0.0
m[2,0] = 0.0
m[2,1] = 0.3333333333333333
m[2,2] = 0.0
m[2,3] = 0.0
m[L0,0] = 1.0
m[L0,1] = 0.0
m[L0,2] = 1.0
m[L0,3] = 0.0
m[L1,0] = 0.0
m[L1,1] = 1.0
m[L1,2] = 0.0
m[L1,3] = 0.0
m[L2,0] = 0.0
m[L2,1] = 0.0
m[L2,2] = 0.0
m[L2,3] = 1.0
u[0] = 1.0
u[1] = 1.0
u[2] = 0.3333333333333333
o_u[0,0] = -0.0
o_u[0,1] = 1.0
o_u[0,2] = -0.0
o_u[1,0] = 1.0
o_u[1,1] = 0.0
o_u[1,2] = 0.0
o_u[2,0] = 0.3333333333333333
o_u[2,1] = 0.3333333333333333
o_u[2,2] = 0.3333333333333333
Solving done
--------------------
c=1.0, e=9.666666666666668
Appending to pareto_points list
Searching for solutions with greater correctness with e_l None
-----------------------------------------------------------------
e_l=None, e_u=8.666666666666668, c_l=1.25, c_u=None
Inside the find_pareto_points function
Gurobi Optimizer version 12.0.3 build v12.0.3rc0 (linux64 - "Ubuntu 22.04.5 LTS")

CPU model: AMD EPYC 7742 64-Core Processor, instruction set [SSE2|AVX|AVX2]
Thread count: 128 physical cores, 256 logical processors, using up to 32 threads

Optimize a model with 969 rows, 297 columns and 3007 nonzeros
Model fingerprint: 0x1667f6c4
Variable types: 279 continuous, 18 integer (0 binary)
Coefficient statistics:
  Matrix range     [1e+00, 4e+00]
  Objective range  [1e+00, 4e+00]
  Bounds range     [1e+00, 1e+00]
  RHS range        [1e+00, 1e+03]

MIP start from previous solve did not produce a new incumbent solution
MIP start from previous solve violates constraint temp_c_lower by 1.000000000

Presolve removed 1 rows and 27 columns
Presolve time: 0.00s

Explored 0 nodes (0 simplex iterations) in 0.00 seconds (0.00 work units)
Thread count was 1 (of 256 available processors)

Solution count 0
No other solutions better than -1e+100

Model is infeasible
Best objective -, best bound -, gap -
Solving done
Returning because the model was infeasible
Pareto points found: 2
Running: root_plus_random
-----------------------------------------------------------------
e_l=None, e_u=None, c_l=None, c_u=None
Inside the find_pareto_points function
Gurobi Optimizer version 12.0.3 build v12.0.3rc0 (linux64 - "Ubuntu 22.04.5 LTS")

CPU model: AMD EPYC 7742 64-Core Processor, instruction set [SSE2|AVX|AVX2]
Thread count: 128 physical cores, 256 logical processors, using up to 32 threads

Optimize a model with 967 rows, 297 columns and 2991 nonzeros
Model fingerprint: 0x5e65c016
Variable types: 264 continuous, 33 integer (0 binary)
Coefficient statistics:
  Matrix range     [1e+00, 4e+00]
  Objective range  [1e+00, 4e+00]
  Bounds range     [1e+00, 1e+00]
  RHS range        [1e+00, 1e+03]
Presolve removed 738 rows and 204 columns
Presolve time: 0.00s
Presolved: 229 rows, 93 columns, 678 nonzeros
Variable types: 66 continuous, 27 integer (27 binary)
Found heuristic solution: objective 12.0000000

Root relaxation: objective 1.600000e+01, 63 iterations, 0.00 seconds (0.00 work units)

    Nodes    |    Current Node    |     Objective Bounds      |     Work
 Expl Unexpl |  Obj  Depth IntInf | Incumbent    BestBd   Gap | It/Node Time

     0     0   16.00000    0    8   12.00000   16.00000  33.3%     -    0s
H    0     0                      13.0000000   16.00000  23.1%     -    0s
H    0     0                      14.0000000   16.00000  14.3%     -    0s
     0     0   15.33333    0   11   14.00000   15.33333  9.52%     -    0s
     0     0   14.00000    0   15   14.00000   14.00000  0.00%     -    0s

Cutting planes:
  Gomory: 2
  MIR: 3
  RLT: 2

Explored 1 nodes (96 simplex iterations) in 0.02 seconds (0.01 work units)
Thread count was 32 (of 256 available processors)

Solution count 3: 14 13 12 

Optimal solution found (tolerance 1.00e-04)
Best objective 1.400000000000e+01, best bound 1.400000000000e+01, gap 0.0000%
lam[0,0] = 1.0
lam[0,1] = -0.0
lam[0,2] = -0.0
lam[1,0] = -0.0
lam[1,1] = 1.0
lam[1,2] = -0.0
lam[2,0] = 1.0
lam[2,1] = 0.0
lam[2,2] = 0.0
tau[0,0,1] = -0.0
tau[0,0,2] = -0.0
tau[0,0,L0] = 1.0
tau[0,0,L1] = -0.0
tau[0,0,L2] = 0.0
tau[0,1,1] = -0.0
tau[0,1,2] = -0.0
tau[0,1,L0] = -0.0
tau[0,1,L1] = 1.0
tau[0,1,L2] = -0.0
tau[0,2,1] = -0.0
tau[0,2,2] = -0.0
tau[0,2,L0] = 0.0
tau[0,2,L1] = -0.0
tau[0,2,L2] = -0.0
tau[1,0,2] = -0.0
tau[1,0,L0] = -0.0
tau[1,0,L1] = -0.0
tau[1,0,L2] = 1.0
tau[1,1,2] = -0.0
tau[1,1,L0] = -0.0
tau[1,1,L1] = -0.0
tau[1,1,L2] = 1.0
tau[1,2,2] = -0.0
tau[1,2,L0] = 1.0
tau[1,2,L1] = -0.0
tau[1,2,L2] = -0.0
tau[2,0,L0] = 0.0
tau[2,0,L1] = 0.0
tau[2,0,L2] = 1.0
tau[2,1,L0] = 0.0
tau[2,1,L1] = 1.0
tau[2,1,L2] = 0.0
tau[2,2,L0] = 0.0
tau[2,2,L1] = 0.0
tau[2,2,L2] = 0.0
m[0,0] = 1.0
m[0,1] = 1.0
m[0,2] = 1.0
m[0,3] = 0.0
m[1,0] = 0.0
m[1,1] = 0.0
m[1,2] = 0.0
m[1,3] = 0.0
m[2,0] = 0.0
m[2,1] = 1.0
m[2,2] = 0.0
m[2,3] = 0.0
m[L0,0] = 1.0
m[L0,1] = 0.0
m[L0,2] = 1.0
m[L0,3] = 0.0
m[L1,0] = 0.0
m[L1,1] = 1.0
m[L1,2] = 0.0
m[L1,3] = 0.0
m[L2,0] = 0.0
m[L2,1] = 0.0
m[L2,2] = 0.0
m[L2,3] = 1.0
u[0] = 1.0
u[1] = 0.0
u[2] = 0.0
o_u[0,0] = 1.0
o_u[0,1] = 0.0
o_u[0,2] = 0.0
o_u[1,0] = 0.0
o_u[1,1] = 0.0
o_u[1,2] = 0.0
o_u[2,0] = 0.0
o_u[2,1] = 0.0
o_u[2,2] = 0.0
Solving done
--------------------
c=0.75, e=11.0
Appending to pareto_points list
Searching solutions with greater explainability with e_u None
-----------------------------------------------------------------
e_l=12.0, e_u=None, c_l=None, c_u=0.5
Inside the find_pareto_points function
Gurobi Optimizer version 12.0.3 build v12.0.3rc0 (linux64 - "Ubuntu 22.04.5 LTS")

CPU model: AMD EPYC 7742 64-Core Processor, instruction set [SSE2|AVX|AVX2]
Thread count: 128 physical cores, 256 logical processors, using up to 32 threads

Optimize a model with 969 rows, 297 columns and 3007 nonzeros
Model fingerprint: 0xbbf4ac26
Variable types: 264 continuous, 33 integer (0 binary)
Coefficient statistics:
  Matrix range     [1e+00, 4e+00]
  Objective range  [1e+00, 4e+00]
  Bounds range     [1e+00, 1e+00]
  RHS range        [1e+00, 1e+03]

MIP start from previous solve did not produce a new incumbent solution

Presolve removed 736 rows and 204 columns
Presolve time: 0.00s
Presolved: 233 rows, 93 columns, 703 nonzeros
Variable types: 66 continuous, 27 integer (27 binary)

Root relaxation: objective 1.433333e+01, 50 iterations, 0.00 seconds (0.00 work units)

    Nodes    |    Current Node    |     Objective Bounds      |     Work
 Expl Unexpl |  Obj  Depth IntInf | Incumbent    BestBd   Gap | It/Node Time

     0     0   14.33333    0    9          -   14.33333      -     -    0s

Cutting planes:
  Gomory: 2
  Cover: 1
  MIR: 1

Explored 1 nodes (50 simplex iterations) in 0.02 seconds (0.01 work units)
Thread count was 32 (of 256 available processors)

Solution count 0
No other solutions better than -1e+100

Model is infeasible
Best objective -, best bound -, gap -
Solving done
Returning because the model was infeasible
Searching for solutions with greater correctness with e_l None
-----------------------------------------------------------------
e_l=None, e_u=10.0, c_l=1.0, c_u=None
Inside the find_pareto_points function
Gurobi Optimizer version 12.0.3 build v12.0.3rc0 (linux64 - "Ubuntu 22.04.5 LTS")

CPU model: AMD EPYC 7742 64-Core Processor, instruction set [SSE2|AVX|AVX2]
Thread count: 128 physical cores, 256 logical processors, using up to 32 threads

Optimize a model with 969 rows, 297 columns and 3007 nonzeros
Model fingerprint: 0x49160b74
Variable types: 264 continuous, 33 integer (0 binary)
Coefficient statistics:
  Matrix range     [1e+00, 4e+00]
  Objective range  [1e+00, 4e+00]
  Bounds range     [1e+00, 1e+00]
  RHS range        [1e+00, 1e+03]

MIP start from previous solve did not produce a new incumbent solution

Presolve removed 773 rows and 215 columns
Presolve time: 0.00s
Presolved: 196 rows, 82 columns, 577 nonzeros
Variable types: 57 continuous, 25 integer (25 binary)
Found heuristic solution: objective 10.0000000
Found heuristic solution: objective 13.0000000

Root relaxation: objective 1.400000e+01, 72 iterations, 0.00 seconds (0.00 work units)

    Nodes    |    Current Node    |     Objective Bounds      |     Work
 Expl Unexpl |  Obj  Depth IntInf | Incumbent    BestBd   Gap | It/Node Time

     0     0   14.00000    0    7   13.00000   14.00000  7.69%     -    0s
     0     0   14.00000    0   11   13.00000   14.00000  7.69%     -    0s
     0     0   13.00000    0    9   13.00000   13.00000  0.00%     -    0s

Cutting planes:
  Gomory: 5
  MIR: 2
  RLT: 1

Explored 1 nodes (104 simplex iterations) in 0.02 seconds (0.01 work units)
Thread count was 32 (of 256 available processors)

Solution count 2: 13 10 

Optimal solution found (tolerance 1.00e-04)
Best objective 1.300000000000e+01, best bound 1.300000000000e+01, gap 0.0000%
lam[0,0] = -0.0
lam[0,1] = 1.0
lam[0,2] = -0.0
lam[1,0] = -0.0
lam[1,1] = 1.0
lam[1,2] = -0.0
lam[2,0] = 1.0
lam[2,1] = 0.0
lam[2,2] = 0.0
tau[0,0,1] = -0.0
tau[0,0,2] = -0.0
tau[0,0,L0] = 1.0
tau[0,0,L1] = 0.0
tau[0,0,L2] = 0.0
tau[0,1,1] = -0.0
tau[0,1,2] = 1.0
tau[0,1,L0] = -0.0
tau[0,1,L1] = -0.0
tau[0,1,L2] = -0.0
tau[0,2,1] = -0.0
tau[0,2,2] = -0.0
tau[0,2,L0] = 0.0
tau[0,2,L1] = -0.0
tau[0,2,L2] = 1.0
tau[1,0,2] = -0.0
tau[1,0,L0] = -0.0
tau[1,0,L1] = -0.0
tau[1,0,L2] = 1.0
tau[1,1,2] = -0.0
tau[1,1,L0] = -0.0
tau[1,1,L1] = 1.0
tau[1,1,L2] = -0.0
tau[1,2,2] = -0.0
tau[1,2,L0] = 1.0
tau[1,2,L1] = -0.0
tau[1,2,L2] = -0.0
tau[2,0,L0] = 1.0
tau[2,0,L1] = 0.0
tau[2,0,L2] = 0.0
tau[2,1,L0] = 0.0
tau[2,1,L1] = 1.0
tau[2,1,L2] = 0.0
tau[2,2,L0] = 0.0
tau[2,2,L1] = 0.0
tau[2,2,L2] = 0.0
m[0,0] = 1.0
m[0,1] = 1.0
m[0,2] = 1.0
m[0,3] = 1.0
m[1,0] = 0.0
m[1,1] = 1.0
m[1,2] = 0.0
m[1,3] = 0.0
m[2,0] = 1.0
m[2,1] = 1.0
m[2,2] = 1.0
m[2,3] = 0.0
m[L0,0] = 1.0
m[L0,1] = 0.0
m[L0,2] = 1.0
m[L0,3] = 0.0
m[L1,0] = 0.0
m[L1,1] = 1.0
m[L1,2] = 0.0
m[L1,3] = 0.0
m[L2,0] = 0.0
m[L2,1] = 0.0
m[L2,2] = 0.0
m[L2,3] = 1.0
u[0] = 1.0
u[1] = 0.0
u[2] = 1.0
o_u[0,0] = -0.0
o_u[0,1] = 1.0
o_u[0,2] = -0.0
o_u[1,0] = 0.0
o_u[1,1] = 0.0
o_u[1,2] = 0.0
o_u[2,0] = 1.0
o_u[2,1] = 0.0
o_u[2,2] = 0.0
Solving done
--------------------
c=1.0, e=9.0
Appending to pareto_points list
Searching solutions with greater explainability
Searching for solutions with greater correctness with e_l None
-----------------------------------------------------------------
e_l=None, e_u=8.0, c_l=1.25, c_u=None
Inside the find_pareto_points function
Gurobi Optimizer version 12.0.3 build v12.0.3rc0 (linux64 - "Ubuntu 22.04.5 LTS")

CPU model: AMD EPYC 7742 64-Core Processor, instruction set [SSE2|AVX|AVX2]
Thread count: 128 physical cores, 256 logical processors, using up to 32 threads

Optimize a model with 969 rows, 297 columns and 3007 nonzeros
Model fingerprint: 0x8ef8c0cf
Variable types: 264 continuous, 33 integer (0 binary)
Coefficient statistics:
  Matrix range     [1e+00, 4e+00]
  Objective range  [1e+00, 4e+00]
  Bounds range     [1e+00, 1e+00]
  RHS range        [1e+00, 1e+03]

MIP start from previous solve did not produce a new incumbent solution
MIP start from previous solve violates constraint temp_c_lower by 1.000000000

Presolve removed 1 rows and 27 columns
Presolve time: 0.00s

Explored 0 nodes (0 simplex iterations) in 0.00 seconds (0.00 work units)
Thread count was 1 (of 256 available processors)

Solution count 0
No other solutions better than -1e+100

Model is infeasible
Best objective -, best bound -, gap -
Solving done
Returning because the model was infeasible
Pareto points found: 2
Running: all_integers
-----------------------------------------------------------------
e_l=None, e_u=None, c_l=None, c_u=None
Inside the find_pareto_points function
Gurobi Optimizer version 12.0.3 build v12.0.3rc0 (linux64 - "Ubuntu 22.04.5 LTS")

CPU model: AMD EPYC 7742 64-Core Processor, instruction set [SSE2|AVX|AVX2]
Thread count: 128 physical cores, 256 logical processors, using up to 32 threads

Optimize a model with 967 rows, 297 columns and 2991 nonzeros
Model fingerprint: 0x1d08780a
Variable types: 252 continuous, 45 integer (0 binary)
Coefficient statistics:
  Matrix range     [1e+00, 4e+00]
  Objective range  [1e+00, 4e+00]
  Bounds range     [1e+00, 1e+00]
  RHS range        [1e+00, 1e+03]
Presolve removed 739 rows and 204 columns
Presolve time: 0.00s
Presolved: 228 rows, 93 columns, 679 nonzeros
Variable types: 49 continuous, 44 integer (44 binary)
Found heuristic solution: objective 11.0000000

Root relaxation: objective 1.600000e+01, 67 iterations, 0.00 seconds (0.00 work units)

    Nodes    |    Current Node    |     Objective Bounds      |     Work
 Expl Unexpl |  Obj  Depth IntInf | Incumbent    BestBd   Gap | It/Node Time

     0     0   16.00000    0   11   11.00000   16.00000  45.5%     -    0s
H    0     0                      13.0000000   16.00000  23.1%     -    0s
H    0     0                      14.0000000   16.00000  14.3%     -    0s
     0     0   15.66667    0   20   14.00000   15.66667  11.9%     -    0s
     0     0   14.50000    0   25   14.00000   14.50000  3.57%     -    0s

Cutting planes:
  Gomory: 9
  MIR: 1
  RLT: 4
  BQP: 1

Explored 1 nodes (142 simplex iterations) in 0.03 seconds (0.01 work units)
Thread count was 32 (of 256 available processors)

Solution count 3: 14 13 11 

Optimal solution found (tolerance 1.00e-04)
Best objective 1.400000000000e+01, best bound 1.400000000000e+01, gap 0.0000%
lam[0,0] = 1.0
lam[0,1] = -0.0
lam[0,2] = -0.0
lam[1,0] = -0.0
lam[1,1] = -0.0
lam[1,2] = 1.0
lam[2,0] = -0.0
lam[2,1] = 1.0
lam[2,2] = -0.0
tau[0,0,1] = -0.0
tau[0,0,2] = -0.0
tau[0,0,L0] = 1.0
tau[0,0,L1] = -0.0
tau[0,0,L2] = 0.0
tau[0,1,1] = -0.0
tau[0,1,2] = -0.0
tau[0,1,L0] = -0.0
tau[0,1,L1] = 1.0
tau[0,1,L2] = -0.0
tau[0,2,1] = -0.0
tau[0,2,2] = -0.0
tau[0,2,L0] = 0.0
tau[0,2,L1] = -0.0
tau[0,2,L2] = -0.0
tau[1,0,2] = -0.0
tau[1,0,L0] = -0.0
tau[1,0,L1] = -0.0
tau[1,0,L2] = 1.0
tau[1,1,2] = -0.0
tau[1,1,L0] = -0.0
tau[1,1,L1] = -0.0
tau[1,1,L2] = 1.0
tau[1,2,2] = -0.0
tau[1,2,L0] = 0.0
tau[1,2,L1] = -0.0
tau[1,2,L2] = -0.0
tau[2,0,L0] = 0.0
tau[2,0,L1] = 1.0
tau[2,0,L2] = 0.0
tau[2,1,L0] = 0.0
tau[2,1,L1] = 1.0
tau[2,1,L2] = 0.0
tau[2,2,L0] = 0.0
tau[2,2,L1] = -0.0
tau[2,2,L2] = 1.0
m[0,0] = 1.0
m[0,1] = 1.0
m[0,2] = 1.0
m[0,3] = 0.0
m[1,0] = 0.0
m[1,1] = 0.0
m[1,2] = 0.0
m[1,3] = 1.0
m[2,0] = 0.0
m[2,1] = 1.0
m[2,2] = 0.0
m[2,3] = 1.0
m[L0,0] = 1.0
m[L0,1] = 0.0
m[L0,2] = 1.0
m[L0,3] = 0.0
m[L1,0] = 0.0
m[L1,1] = 1.0
m[L1,2] = 0.0
m[L1,3] = 0.0
m[L2,0] = 0.0
m[L2,1] = 0.0
m[L2,2] = 0.0
m[L2,3] = 1.0
u[0] = 1.0
u[1] = 0.0
u[2] = 0.0
o_u[0,0] = 1.0
o_u[0,1] = 0.0
o_u[0,2] = 0.0
o_u[1,0] = 0.0
o_u[1,1] = 0.0
o_u[1,2] = 0.0
o_u[2,0] = 0.0
o_u[2,1] = 0.0
o_u[2,2] = 0.0
Solving done
--------------------
c=0.75, e=11.0
Appending to pareto_points list
Searching solutions with greater explainability with e_u None
-----------------------------------------------------------------
e_l=12.0, e_u=None, c_l=None, c_u=0.5
Inside the find_pareto_points function
Gurobi Optimizer version 12.0.3 build v12.0.3rc0 (linux64 - "Ubuntu 22.04.5 LTS")

CPU model: AMD EPYC 7742 64-Core Processor, instruction set [SSE2|AVX|AVX2]
Thread count: 128 physical cores, 256 logical processors, using up to 32 threads

Optimize a model with 969 rows, 297 columns and 3007 nonzeros
Model fingerprint: 0x2fe889d8
Variable types: 252 continuous, 45 integer (0 binary)
Coefficient statistics:
  Matrix range     [1e+00, 4e+00]
  Objective range  [1e+00, 4e+00]
  Bounds range     [1e+00, 1e+00]
  RHS range        [1e+00, 1e+03]

MIP start from previous solve did not produce a new incumbent solution

Presolve removed 737 rows and 204 columns
Presolve time: 0.00s
Presolved: 232 rows, 93 columns, 704 nonzeros
Variable types: 49 continuous, 44 integer (44 binary)

Root relaxation: objective 1.433333e+01, 50 iterations, 0.00 seconds (0.00 work units)

    Nodes    |    Current Node    |     Objective Bounds      |     Work
 Expl Unexpl |  Obj  Depth IntInf | Incumbent    BestBd   Gap | It/Node Time

     0     0   14.33333    0   11          -   14.33333      -     -    0s

Cutting planes:
  Gomory: 1
  RLT: 1

Explored 1 nodes (121 simplex iterations) in 0.02 seconds (0.01 work units)
Thread count was 32 (of 256 available processors)

Solution count 0
No other solutions better than -1e+100

Model is infeasible
Best objective -, best bound -, gap -
Solving done
Returning because the model was infeasible
Searching for solutions with greater correctness with e_l None
-----------------------------------------------------------------
e_l=None, e_u=10.0, c_l=1.0, c_u=None
Inside the find_pareto_points function
Gurobi Optimizer version 12.0.3 build v12.0.3rc0 (linux64 - "Ubuntu 22.04.5 LTS")

CPU model: AMD EPYC 7742 64-Core Processor, instruction set [SSE2|AVX|AVX2]
Thread count: 128 physical cores, 256 logical processors, using up to 32 threads

Optimize a model with 969 rows, 297 columns and 3007 nonzeros
Model fingerprint: 0x4a682f3c
Variable types: 252 continuous, 45 integer (0 binary)
Coefficient statistics:
  Matrix range     [1e+00, 4e+00]
  Objective range  [1e+00, 4e+00]
  Bounds range     [1e+00, 1e+00]
  RHS range        [1e+00, 1e+03]

MIP start from previous solve did not produce a new incumbent solution

Presolve removed 778 rows and 217 columns
Presolve time: 0.01s
Presolved: 191 rows, 80 columns, 569 nonzeros
Variable types: 40 continuous, 40 integer (40 binary)
Found heuristic solution: objective 13.0000000

Root relaxation: objective 1.400000e+01, 68 iterations, 0.00 seconds (0.00 work units)

    Nodes    |    Current Node    |     Objective Bounds      |     Work
 Expl Unexpl |  Obj  Depth IntInf | Incumbent    BestBd   Gap | It/Node Time

     0     0   14.00000    0    9   13.00000   14.00000  7.69%     -    0s
     0     0   14.00000    0   17   13.00000   14.00000  7.69%     -    0s
H    0     0                      13.0000008   14.00000  7.69%     -    0s
     0     0   13.00000    0    8   13.00000   13.00000  0.00%     -    0s

Cutting planes:
  Gomory: 3
  Flow cover: 1
  RLT: 1

Explored 1 nodes (166 simplex iterations) in 0.03 seconds (0.01 work units)
Thread count was 32 (of 256 available processors)

Solution count 2: 13 13 

Optimal solution found (tolerance 1.00e-04)
Best objective 1.300000083333e+01, best bound 1.300000083333e+01, gap 0.0000%
lam[0,0] = 1.0
lam[0,1] = -0.0
lam[0,2] = -0.0
lam[1,0] = -0.0
lam[1,1] = 1.0
lam[1,2] = -0.0
lam[2,0] = -0.0
lam[2,1] = 1.0
lam[2,2] = -0.0
tau[0,0,1] = -0.0
tau[0,0,2] = -0.0
tau[0,0,L0] = 1.0
tau[0,0,L1] = 0.0
tau[0,0,L2] = 0.0
tau[0,1,1] = 1.0
tau[0,1,2] = -0.0
tau[0,1,L0] = -0.0
tau[0,1,L1] = -0.0
tau[0,1,L2] = -0.0
tau[0,2,1] = -0.0
tau[0,2,2] = -0.0
tau[0,2,L0] = 0.0
tau[0,2,L1] = -0.0
tau[0,2,L2] = -0.0
tau[1,0,2] = -0.0
tau[1,0,L0] = -0.0
tau[1,0,L1] = -0.0
tau[1,0,L2] = 1.0
tau[1,1,2] = -0.0
tau[1,1,L0] = -0.0
tau[1,1,L1] = 1.0
tau[1,1,L2] = -0.0
tau[1,2,2] = -0.0
tau[1,2,L0] = 0.0
tau[1,2,L1] = -0.0
tau[1,2,L2] = 1.0
tau[2,0,L0] = 1.0
tau[2,0,L1] = 0.0
tau[2,0,L2] = -0.0
tau[2,1,L0] = 0.0
tau[2,1,L1] = 1.0
tau[2,1,L2] = -0.0
tau[2,2,L0] = 1.0
tau[2,2,L1] = -0.0
tau[2,2,L2] = 0.0
m[0,0] = 1.0
m[0,1] = 1.0
m[0,2] = 1.0
m[0,3] = 1.0
m[1,0] = 0.0
m[1,1] = 1.0
m[1,2] = 0.0
m[1,3] = 1.0
m[2,0] = 1.0
m[2,1] = 1.0
m[2,2] = 0.0
m[2,3] = 0.0
m[L0,0] = 1.0
m[L0,1] = 0.0
m[L0,2] = 1.0
m[L0,3] = 0.0
m[L1,0] = 0.0
m[L1,1] = 1.0
m[L1,2] = 0.0
m[L1,3] = 0.0
m[L2,0] = 0.0
m[L2,1] = 0.0
m[L2,2] = 0.0
m[L2,3] = 1.0
u[0] = 1.0
u[1] = 1.0
u[2] = 0.0
o_u[0,0] = 1.0
o_u[0,1] = -0.0
o_u[0,2] = -0.0
o_u[1,0] = 0.0
o_u[1,1] = 1.0
o_u[1,2] = 0.0
o_u[2,0] = 0.0
o_u[2,1] = 4.166666762989974e-07
o_u[2,2] = 0.0
Solving done
--------------------
c=1.0, e=9.000000833333353
Appending to pareto_points list
Searching for solutions with greater correctness with e_l None
-----------------------------------------------------------------
e_l=None, e_u=8.000000833333353, c_l=1.25, c_u=None
Inside the find_pareto_points function
Gurobi Optimizer version 12.0.3 build v12.0.3rc0 (linux64 - "Ubuntu 22.04.5 LTS")

CPU model: AMD EPYC 7742 64-Core Processor, instruction set [SSE2|AVX|AVX2]
Thread count: 128 physical cores, 256 logical processors, using up to 32 threads

Optimize a model with 969 rows, 297 columns and 3007 nonzeros
Model fingerprint: 0x4b90e319
Variable types: 252 continuous, 45 integer (0 binary)
Coefficient statistics:
  Matrix range     [1e+00, 4e+00]
  Objective range  [1e+00, 4e+00]
  Bounds range     [1e+00, 1e+00]
  RHS range        [1e+00, 1e+03]

MIP start from previous solve did not produce a new incumbent solution
MIP start from previous solve violates constraint temp_c_lower by 1.000000000

Presolve removed 1 rows and 27 columns
Presolve time: 0.00s

Explored 0 nodes (0 simplex iterations) in 0.00 seconds (0.00 work units)
Thread count was 1 (of 256 available processors)

Solution count 0
No other solutions better than -1e+100

Model is infeasible
Best objective -, best bound -, gap -
Solving done
Returning because the model was infeasible
Pareto points found: 2
